coords = array2d(1..68, 1..2, [467, 433, 978, 305, 757, 282, 256, 126, 1, 611,
    271, 910, 341, 902, 441, 935, 305, 965, 236, 765, 626, 759, 702,
    848, 798, 150, 217, 38, 621, 529, 108, 855, 288, 642, 410, 677,
    182, 509, 744, 789, 63, 616, 704, 612, 484, 18, 29, 101, 542, 277,
    886, 430, 228, 631, 77, 767, 145, 175, 848, 686, 84, 306, 842, 67,
    941, 305, 967, 732, 345, 619, 357, 594, 314, 295, 809, 417, 231,
    368, 29, 217, 668, 772, 962, 672, 915, 755, 790, 295, 33, 452, 48,
    645, 408, 610, 508, 967, 465, 300, 684, 998, 547, 929, 287, 846,
    194, 592, 935, 216, 815, 336, 162, 132, 863, 636, 494, 611, 177,
    120, 788, 368, 844, 325, 986, 899, 808, 802, 848, 533, 551, 316,
    422, 982, 554, 934, 269, 29]);

n = 68;

